!- EnergyPlus Baseline Office Model
!- Single thermal zone, minimal HVAC (IdealLoadsAirSystem)
!- Designed for API runtime testing with read_variable / set_actuator

  Version,24.2;

!- ============================================================
!- SIMULATION PARAMETERS
!- ============================================================

  SimulationControl,
    No,                      !- Do Zone Sizing Calculation
    No,                      !- Do System Sizing Calculation
    No,                      !- Do Plant Sizing Calculation
    Yes,                     !- Run Simulation for Sizing Periods
    No,                      !- Run Simulation for Weather File Run Periods
    No,                      !- Do HVAC Sizing Simulation for Sizing Periods
    1;                       !- Maximum Number of HVAC Sizing Simulation Passes

  Timestep,4;

  Building,
    Baseline Office,         !- Name
    0,                       !- North Axis {deg}
    Suburbs,                 !- Terrain
    0.04,                    !- Loads Convergence Tolerance Value {W}
    0.4,                     !- Temperature Convergence Tolerance Value {deltaC}
    FullInteriorAndExterior, !- Solar Distribution
    25,                      !- Maximum Number of Warmup Days
    6;                       !- Minimum Number of Warmup Days

  SurfaceConvectionAlgorithm:Inside,TARP;
  SurfaceConvectionAlgorithm:Outside,DOE-2;
  HeatBalanceAlgorithm,ConductionTransferFunction;

!- ============================================================
!- RUN PERIOD — use SizingPeriod:DesignDay for quick test
!- ============================================================

  SizingPeriod:DesignDay,
    Chicago Summer Design Day,  !- Name
    7,                       !- Month
    21,                      !- Day of Month
    SummerDesignDay,         !- Day Type
    33.3,                    !- Maximum Dry-Bulb Temperature {C}
    10.7,                    !- Daily Dry-Bulb Temperature Range {deltaC}
    DefaultMultipliers,      !- Dry-Bulb Temperature Range Modifier Type
    ,                        !- Dry-Bulb Temperature Range Modifier Day Schedule Name
    Wetbulb,                 !- Humidity Condition Type
    23.8,                    !- Wetbulb or DewPoint at Maximum Dry-Bulb {C}
    ,                        !- Humidity Condition Day Schedule Name
    ,                        !- Humidity Ratio at Maximum Dry-Bulb {kgWater/kgDryAir}
    ,                        !- Enthalpy at Maximum Dry-Bulb {J/kg}
    ,                        !- Daily Wet-Bulb Temperature Range {deltaC}
    99063.,                  !- Barometric Pressure {Pa}
    5.3,                     !- Wind Speed {m/s}
    230,                     !- Wind Direction {deg}
    No,                      !- Rain Indicator
    No,                      !- Snow Indicator
    No,                      !- Daylight Saving Time Indicator
    ASHRAEClearSky,          !- Solar Model Indicator
    ,                        !- Beam Solar Day Schedule Name
    ,                        !- Diffuse Solar Day Schedule Name
    1.0,                     !- ASHRAE Clear Sky Optical Depth for Beam Irradiance (taub) {dimensionless}
    ,                        !- ASHRAE Clear Sky Optical Depth for Diffuse Irradiance (taud) {dimensionless}
    1.00;                    !- Sky Clearness

  SizingPeriod:DesignDay,
    Chicago Winter Design Day,  !- Name
    1,                       !- Month
    21,                      !- Day of Month
    WinterDesignDay,         !- Day Type
    -17.3,                   !- Maximum Dry-Bulb Temperature {C}
    0.0,                     !- Daily Dry-Bulb Temperature Range {deltaC}
    DefaultMultipliers,      !- Dry-Bulb Temperature Range Modifier Type
    ,                        !- Dry-Bulb Temperature Range Modifier Day Schedule Name
    Wetbulb,                 !- Humidity Condition Type
    -17.3,                   !- Wetbulb or DewPoint at Maximum Dry-Bulb {C}
    ,                        !- Humidity Condition Day Schedule Name
    ,                        !- Humidity Ratio at Maximum Dry-Bulb {kgWater/kgDryAir}
    ,                        !- Enthalpy at Maximum Dry-Bulb {J/kg}
    ,                        !- Daily Wet-Bulb Temperature Range {deltaC}
    99063.,                  !- Barometric Pressure {Pa}
    4.9,                     !- Wind Speed {m/s}
    270,                     !- Wind Direction {deg}
    No,                      !- Rain Indicator
    No,                      !- Snow Indicator
    No,                      !- Daylight Saving Time Indicator
    ASHRAEClearSky,          !- Solar Model Indicator
    ,                        !- Beam Solar Day Schedule Name
    ,                        !- Diffuse Solar Day Schedule Name
    0.0,                     !- ASHRAE Clear Sky Optical Depth for Beam Irradiance (taub) {dimensionless}
    ,                        !- ASHRAE Clear Sky Optical Depth for Diffuse Irradiance (taud) {dimensionless}
    0.00;                    !- Sky Clearness

!- ============================================================
!- LOCATION
!- ============================================================

  Site:Location,
    Chicago Ohare Intl Ap,   !- Name
    41.98,                   !- Latitude {deg}
    -87.92,                  !- Longitude {deg}
    -6.00,                   !- Time Zone {hr}
    201.00;                  !- Elevation {m}

!- ============================================================
!- SCHEDULES
!- ============================================================

  ScheduleTypeLimits,
    Any Number;              !- Name

  ScheduleTypeLimits,
    Fraction,                !- Name
    0.0,                     !- Lower Limit Value
    1.0,                     !- Upper Limit Value
    CONTINUOUS;              !- Numeric Type

  ScheduleTypeLimits,
    Temperature,             !- Name
    -100,                    !- Lower Limit Value
    200,                     !- Upper Limit Value
    CONTINUOUS;              !- Numeric Type

  Schedule:Constant,
    Always On,               !- Name
    Fraction,                !- Schedule Type Limits Name
    1.0;                     !- Hourly Value

  Schedule:Constant,
    Always Off,              !- Name
    Fraction,                !- Schedule Type Limits Name
    0.0;                     !- Hourly Value

  Schedule:Constant,
    Heating Setpoint Schedule, !- Name
    Temperature,             !- Schedule Type Limits Name
    21.0;                    !- Hourly Value

  Schedule:Constant,
    Cooling Setpoint Schedule, !- Name
    Temperature,             !- Schedule Type Limits Name
    24.0;                    !- Hourly Value

!- This schedule is the actuator target — API can change it at runtime
  Schedule:Constant,
    Actuator Target Schedule, !- Name
    Any Number,              !- Schedule Type Limits Name
    0.0;                     !- Hourly Value

!- Thermostat control type 4 = DualSetpoint
  Schedule:Constant,
    Dual Setpoint Control Type, !- Name
    Any Number,              !- Schedule Type Limits Name
    4;                       !- Hourly Value

!- People activity level ~120 W/person (typical office)
  Schedule:Constant,
    Activity Level 120W,     !- Name
    Any Number,              !- Schedule Type Limits Name
    120;                     !- Hourly Value

!- PMV calculation inputs
  Schedule:Constant,
    Work Efficiency 0,       !- Name
    Any Number,              !- Schedule Type Limits Name
    0.0;                     !- Hourly Value

  Schedule:Constant,
    Clothing 1 Clo,          !- Name
    Any Number,              !- Schedule Type Limits Name
    1.0;                     !- Hourly Value

  Schedule:Constant,
    Air Velocity 0.2,        !- Name
    Any Number,              !- Schedule Type Limits Name
    0.2;                     !- Hourly Value

!- ============================================================
!- MATERIALS & CONSTRUCTIONS
!- ============================================================

  Material,
    Concrete Block,          !- Name
    MediumRough,             !- Roughness
    0.2032,                  !- Thickness {m}
    1.311,                   !- Conductivity {W/m-K}
    2240,                    !- Density {kg/m3}
    836.8,                   !- Specific Heat {J/kg-K}
    0.9,                     !- Thermal Absorptance
    0.7,                     !- Solar Absorptance
    0.7;                     !- Visible Absorptance

  Material,
    Insulation,              !- Name
    VeryRough,               !- Roughness
    0.0508,                  !- Thickness {m}
    0.04,                    !- Conductivity {W/m-K}
    10,                      !- Density {kg/m3}
    836.8,                   !- Specific Heat {J/kg-K}
    0.9,                     !- Thermal Absorptance
    0.5,                     !- Solar Absorptance
    0.5;                     !- Visible Absorptance

  Material,
    Roof Membrane,           !- Name
    VeryRough,               !- Roughness
    0.0095,                  !- Thickness {m}
    0.16,                    !- Conductivity {W/m-K}
    1121.29,                 !- Density {kg/m3}
    1460,                    !- Specific Heat {J/kg-K}
    0.9,                     !- Thermal Absorptance
    0.7,                     !- Solar Absorptance
    0.7;                     !- Visible Absorptance

  Material,
    Concrete Slab,           !- Name
    MediumRough,             !- Roughness
    0.1016,                  !- Thickness {m}
    1.311,                   !- Conductivity {W/m-K}
    2240,                    !- Density {kg/m3}
    836.8,                   !- Specific Heat {J/kg-K}
    0.9,                     !- Thermal Absorptance
    0.7,                     !- Solar Absorptance
    0.7;                     !- Visible Absorptance

  Construction,
    Exterior Wall,           !- Name
    Concrete Block,          !- Outside Layer
    Insulation;              !- Layer 2

  Construction,
    Roof Construction,       !- Name
    Roof Membrane,           !- Outside Layer
    Insulation;              !- Layer 2

  Construction,
    Floor Construction,      !- Name
    Concrete Slab;           !- Outside Layer

!- ============================================================
!- ZONE
!- ============================================================

  Zone,
    Office Zone,             !- Name
    0,                       !- Direction of Relative North {deg}
    0, 0, 0,                 !- X,Y,Z Origin {m}
    1,                       !- Type
    1,                       !- Multiplier
    autocalculate,           !- Ceiling Height {m}
    autocalculate;           !- Volume {m3}

  GlobalGeometryRules,
    UpperLeftCorner,         !- Starting Vertex Position
    CounterClockWise,        !- Vertex Entry Direction
    Relative;                !- Coordinate System

!- ============================================================
!- SURFACES — 10m x 10m x 3m box
!- ============================================================

  BuildingSurface:Detailed,
    South Wall,              !- Name
    Wall,                    !- Surface Type
    Exterior Wall,           !- Construction Name
    Office Zone,             !- Zone Name
    ,                        !- Space Name
    Outdoors,                !- Outside Boundary Condition
    ,                        !- Outside Boundary Condition Object
    SunExposed,              !- Sun Exposure
    WindExposed,             !- Wind Exposure
    0.5,                     !- View Factor to Ground
    4,                       !- Number of Vertices
    0,0,3,                   !- Vertex 1 X,Y,Z {m}
    0,0,0,                   !- Vertex 2 X,Y,Z {m}
    10,0,0,                  !- Vertex 3 X,Y,Z {m}
    10,0,3;                  !- Vertex 4 X,Y,Z {m}

  BuildingSurface:Detailed,
    East Wall,               !- Name
    Wall,                    !- Surface Type
    Exterior Wall,           !- Construction Name
    Office Zone,             !- Zone Name
    ,                        !- Space Name
    Outdoors,                !- Outside Boundary Condition
    ,                        !- Outside Boundary Condition Object
    SunExposed,              !- Sun Exposure
    WindExposed,             !- Wind Exposure
    0.5,                     !- View Factor to Ground
    4,                       !- Number of Vertices
    10,0,3,                  !- Vertex 1 X,Y,Z {m}
    10,0,0,                  !- Vertex 2 X,Y,Z {m}
    10,10,0,                 !- Vertex 3 X,Y,Z {m}
    10,10,3;                 !- Vertex 4 X,Y,Z {m}

  BuildingSurface:Detailed,
    North Wall,              !- Name
    Wall,                    !- Surface Type
    Exterior Wall,           !- Construction Name
    Office Zone,             !- Zone Name
    ,                        !- Space Name
    Outdoors,                !- Outside Boundary Condition
    ,                        !- Outside Boundary Condition Object
    SunExposed,              !- Sun Exposure
    WindExposed,             !- Wind Exposure
    0.5,                     !- View Factor to Ground
    4,                       !- Number of Vertices
    10,10,3,                 !- Vertex 1 X,Y,Z {m}
    10,10,0,                 !- Vertex 2 X,Y,Z {m}
    0,10,0,                  !- Vertex 3 X,Y,Z {m}
    0,10,3;                  !- Vertex 4 X,Y,Z {m}

  BuildingSurface:Detailed,
    West Wall,               !- Name
    Wall,                    !- Surface Type
    Exterior Wall,           !- Construction Name
    Office Zone,             !- Zone Name
    ,                        !- Space Name
    Outdoors,                !- Outside Boundary Condition
    ,                        !- Outside Boundary Condition Object
    SunExposed,              !- Sun Exposure
    WindExposed,             !- Wind Exposure
    0.5,                     !- View Factor to Ground
    4,                       !- Number of Vertices
    0,10,3,                  !- Vertex 1 X,Y,Z {m}
    0,10,0,                  !- Vertex 2 X,Y,Z {m}
    0,0,0,                   !- Vertex 3 X,Y,Z {m}
    0,0,3;                   !- Vertex 4 X,Y,Z {m}

  BuildingSurface:Detailed,
    Roof,                    !- Name
    Roof,                    !- Surface Type
    Roof Construction,       !- Construction Name
    Office Zone,             !- Zone Name
    ,                        !- Space Name
    Outdoors,                !- Outside Boundary Condition
    ,                        !- Outside Boundary Condition Object
    SunExposed,              !- Sun Exposure
    WindExposed,             !- Wind Exposure
    0,                       !- View Factor to Ground
    4,                       !- Number of Vertices
    0,10,3,                  !- Vertex 1 X,Y,Z {m}
    0,0,3,                   !- Vertex 2 X,Y,Z {m}
    10,0,3,                  !- Vertex 3 X,Y,Z {m}
    10,10,3;                 !- Vertex 4 X,Y,Z {m}

  BuildingSurface:Detailed,
    Floor,                   !- Name
    Floor,                   !- Surface Type
    Floor Construction,      !- Construction Name
    Office Zone,             !- Zone Name
    ,                        !- Space Name
    Ground,                  !- Outside Boundary Condition
    ,                        !- Outside Boundary Condition Object
    NoSun,                   !- Sun Exposure
    NoWind,                  !- Wind Exposure
    1.0,                     !- View Factor to Ground
    4,                       !- Number of Vertices
    0,0,0,                   !- Vertex 1 X,Y,Z {m}
    0,10,0,                  !- Vertex 2 X,Y,Z {m}
    10,10,0,                 !- Vertex 3 X,Y,Z {m}
    10,0,0;                  !- Vertex 4 X,Y,Z {m}

!- ============================================================
!- INTERNAL GAINS
!- ============================================================

  People,
    Office People,           !- Name
    Office Zone,             !- Zone or ZoneList or Space or SpaceList Name
    Always On,               !- Number of People Schedule Name
    People,                  !- Number of People Calculation Method
    10,                      !- Number of People
    ,                        !- People per Floor Area {person/m2}
    ,                        !- Floor Area per Person {m2/person}
    0.3,                     !- Fraction Radiant
    ,                        !- Sensible Heat Fraction
    Activity Level 120W,     !- Activity Level Schedule Name
    3.82E-8,                 !- Carbon Dioxide Generation Rate {m3/s-W}
    No,                      !- Enable ASHRAE 55 Comfort Warnings
    EnclosureAveraged,       !- Mean Radiant Temperature Calculation Type
    ,                        !- Surface Name/Angle Factor List Name
    Work Efficiency 0,       !- Work Efficiency Schedule Name
    ClothingInsulationSchedule, !- Clothing Insulation Calculation Method
    ,                        !- Clothing Insulation Calculation Method Schedule Name
    Clothing 1 Clo,          !- Clothing Insulation Schedule Name
    Air Velocity 0.2,        !- Air Velocity Schedule Name
    Fanger;                  !- Thermal Comfort Model 1 Type

  Lights,
    Office Lights,           !- Name
    Office Zone,             !- Zone or ZoneList or Space or SpaceList Name
    Always On,               !- Schedule Name
    LightingLevel,           !- Design Level Calculation Method
    1000,                    !- Lighting Level {W}
    ,                        !- Watts per Floor Area {W/m2}
    ,                        !- Watts per Person {W/person}
    0,                       !- Return Air Fraction
    0.4,                     !- Fraction Radiant
    0.2,                     !- Fraction Visible
    0;                       !- Fraction Replaceable

  ElectricEquipment,
    Office Equipment,        !- Name
    Office Zone,             !- Zone or ZoneList or Space or SpaceList Name
    Always On,               !- Schedule Name
    EquipmentLevel,          !- Design Level Calculation Method
    1500,                    !- Design Level {W}
    ,                        !- Watts per Floor Area {W/m2}
    ,                        !- Watts per Person {W/person}
    0,                       !- Fraction Latent
    0.3,                     !- Fraction Radiant
    0;                       !- Fraction Lost

!- ============================================================
!- INFILTRATION & CONTAMINANTS
!- ============================================================

  Schedule:Constant,
    Outdoor CO2 Schedule,    !- Name
    Any Number,              !- Schedule Type Limits Name
    400;                     !- Hourly Value

  ZoneAirContaminantBalance,
    Yes,                     !- Carbon Dioxide Concentration
    Outdoor CO2 Schedule,    !- Outdoor Carbon Dioxide Schedule Name
    No;                      !- Generic Contaminant Concentration

  ZoneInfiltration:DesignFlowRate,
    Office Infiltration,     !- Name
    Office Zone,             !- Zone or ZoneList or Space or SpaceList Name
    Always On,               !- Schedule Name
    Flow/Zone,               !- Design Flow Rate Calculation Method
    0.05,                    !- Design Flow Rate {m3/s}
    ,                        !- Flow Rate per Floor Area {m3/s-m2}
    ,                        !- Flow Rate per Exterior Surface Area {m3/s-m2}
    ,                        !- Air Changes per Hour {1/hr}
    1,                       !- Constant Term Coefficient
    0,                       !- Temperature Term Coefficient
    0,                       !- Velocity Term Coefficient
    0;                       !- Velocity Squared Term Coefficient

!- ============================================================
!- HVAC — Ideal Loads (purchased air)
!- ============================================================

  ZoneHVAC:IdealLoadsAirSystem,
    Office Ideal Loads,      !- Name
    ,                        !- Availability Schedule Name
    Office Zone Ideal Loads Supply Inlet, !- Zone Supply Air Node Name
    ,                        !- Zone Exhaust Air Node Name
    ,                        !- System Inlet Air Node Name
    50,                      !- Maximum Heating Supply Air Temperature {C}
    13,                      !- Minimum Cooling Supply Air Temperature {C}
    0.0156,                  !- Maximum Heating Supply Air Humidity Ratio {kgWater/kgDryAir}
    0.0077,                  !- Minimum Cooling Supply Air Humidity Ratio {kgWater/kgDryAir}
    NoLimit,                 !- Heating Limit
    ,                        !- Maximum Heating Air Flow Rate {m3/s}
    ,                        !- Maximum Sensible Heating Capacity {W}
    NoLimit,                 !- Cooling Limit
    ,                        !- Maximum Cooling Air Flow Rate {m3/s}
    ,                        !- Maximum Total Cooling Capacity {W}
    Heating Setpoint Schedule, !- Heating Availability Schedule Name
    Cooling Setpoint Schedule; !- Cooling Availability Schedule Name

  ZoneHVAC:EquipmentList,
    Office Zone Equipment,   !- Name
    SequentialLoad,          !- Load Distribution Scheme
    ZoneHVAC:IdealLoadsAirSystem, !- Zone Equipment 1 Object Type
    Office Ideal Loads,      !- Zone Equipment 1 Name
    1,                       !- Zone Equipment 1 Cooling Sequence
    1,                       !- Zone Equipment 1 Heating or No-Load Sequence
    ,                        !- Zone Equipment 1 Sequential Cooling Fraction Schedule Name
    ;                        !- Zone Equipment 1 Sequential Heating Fraction Schedule Name

  ZoneHVAC:EquipmentConnections,
    Office Zone,             !- Zone Name
    Office Zone Equipment,   !- Zone Conditioning Equipment List Name
    Office Zone Ideal Loads Supply Inlet, !- Zone Air Inlet Node or NodeList Name
    ,                        !- Zone Air Exhaust Node or NodeList Name
    Office Zone Air Node,    !- Zone Air Node Name
    Office Zone Return Air Node; !- Zone Return Air Node or NodeList Name

!- ============================================================
!- THERMOSTAT
!- ============================================================

  ZoneControl:Thermostat,
    Office Thermostat,       !- Name
    Office Zone,             !- Zone or ZoneList Name
    Dual Setpoint Control Type, !- Control Type Schedule Name
    ThermostatSetpoint:DualSetpoint, !- Control 1 Object Type
    Office Dual Setpoint;    !- Control 1 Name

  ThermostatSetpoint:DualSetpoint,
    Office Dual Setpoint,    !- Name
    Heating Setpoint Schedule, !- Heating Setpoint Temperature Schedule Name
    Cooling Setpoint Schedule; !- Cooling Setpoint Temperature Schedule Name

!- ============================================================
!- OUTPUT VARIABLES — these enable read_variable() via API
!- ============================================================

  Output:Variable,*,Zone Mean Air Temperature,Timestep;
  Output:Variable,*,Zone Air System Sensible Heating Rate,Timestep;
  Output:Variable,*,Zone Air System Sensible Cooling Rate,Timestep;
  Output:Variable,*,Site Outdoor Air Drybulb Temperature,Timestep;
  Output:Variable,*,Zone Ideal Loads Supply Air Total Heating Rate,Timestep;
  Output:Variable,*,Zone Ideal Loads Supply Air Total Cooling Rate,Timestep;
  Output:Variable,*,Schedule Value,Timestep;
  Output:Variable,*,Zone Air CO2 Concentration,Timestep;
  Output:Variable,*,Zone Thermal Comfort Fanger Model PMV,Timestep;

!- ============================================================
!- OUTPUT CONTROL
!- ============================================================

  OutputControl:Table:Style,
    CommaAndHTML;            !- Column Separator

  Output:Table:SummaryReports,
    AllSummary;              !- Report 1 Name

  Output:SQLite,
    SimpleAndTabular;        !- Option Type
